proyfinal/src/viki/013/andrea/andrea-localstore/experimentInOfficeAgust.take6/worker_1/5a73a008-1360-4ebc-88e3-924b46810245.als.cnf.out
Reading from standard input... Use '--help' for help.
============================[ Problem Statistics ]=============================
|                                                                             |
|  Number of variables:         87638                                         |
|  Number of clauses:          161767                                         |
|  Parse time:                   0.03 s                                       |
|                                                                             |
============================[ Search Statistics ]==============================
| Conflicts |          ORIGINAL         |          LEARNT          | Progress |
|           |    Vars  Clauses Literals |    Limit  Clauses Lit/Cl |          |
===============================================================================
|       100 |   63643   109766   274438 |    40247      100     54 | 27.380 % |
|       250 |   63643   109766   274438 |    44272      250     38 | 27.380 % |
|       475 |   63635   109734   274350 |    48699      450     81 | 27.389 % |
|       812 |   63613   109642   274139 |    53569      641     72 | 27.414 % |
|      1318 |   63551   109448   273702 |    58926     1140     66 | 27.485 % |
|      2077 |   63533   109274   273302 |    64819     1580     93 | 27.505 % |
|      3216 |   49142    67524   170607 |    71300     2677    105 | 43.926 % |
|      4924 |   48809    66173   167308 |    78431     4336     88 | 44.306 % |
|      7486 |   48268    64455   163200 |    86274     6869     74 | 44.923 % |
===============================================================================
restarts              : 44
conflicts             : 9870           (6694 /sec)
decisions             : 34754          (0.00 % random) (23571 /sec)
propagations          : 15596870       (10578223 /sec)
conflict literals     : 629665         (40.82 % deleted)
Memory used           : 33.07 MB
CPU time              : 1.47443 s

UNSATISFIABLE
